\ LP format - for model browsing. Use MPS format to capture full model detail.
Minimize
  - 3 x0 + x1
Subject To
 constr(0): 4 x0 - 5 x1 <= 5
 constr(1): - 4 x0 - 3 x1 >= -1
Bounds
 x0 <= 4
 x1 <= 4
Generals
 x0 x1
End
